NAME : xqg237
COMMENT : Bonn VLSI data set with 237 points
COMMENT : Uni Bonn, Research Institute for Discrete Math
COMMENT : Contributed by Andre Rohe
TYPE : TSP
DIMENSION : 4
EDGE_WEIGHT_TYPE : EUC_2D
NODE_COORD_SECTION
1 2 0
2 12 10
3 0 8
4 2 12
EOF
